
Gurobi 9.0.2 (win64, Python) logging started Sat Jul  6 11:19:31 2024

Using license file C:\Users\thi-s\gurobi.lic
Set parameter LogFile to value gurobi.log

Gurobi 9.0.2 (win64, Python) logging started Sat Jul  6 11:40:46 2024

Using license file C:\Users\thi-s\gurobi.lic
Set parameter LogFile to value gurobi.log
Academic license - for non-commercial use only

Gurobi 9.5.2 (win64, Python) logging started Sat Jul  6 12:54:55 2024

Set parameter Username
Set parameter LogFile to value "gurobi.log"
Academic license - for non-commercial use only - expires 2025-07-06
